unknown
(model
; cardinality of BoundSet is 2
(declare-sort BoundSet 0)
; rep: @uc_BoundSet_0
; rep: @uc_BoundSet_1
; cardinality of UnboundSet is 1
(declare-sort UnboundSet 0)
(declare-fun groundTerm_3 () UnboundSet)
(define-fun IsAScientist ((BOUND_VARIABLE_406 BoundSet)) Bool true)
(define-fun Studies ((BOUND_VARIABLE_413 BoundSet) (BOUND_VARIABLE_414 BoundSet)) Bool true)
(define-fun IsRelatedTo ((BOUND_VARIABLE_413 BoundSet) (BOUND_VARIABLE_414 BoundSet)) Bool false)
)
sat
(model
; cardinality of BoundSet is 1
(declare-sort BoundSet 0)
; rep: @uc_BoundSet_0
; cardinality of UnboundSet is 1
(declare-sort UnboundSet 0)
(declare-fun groundTerm_5 () UnboundSet)
(define-fun IsAScientist ((BOUND_VARIABLE_446 BoundSet)) Bool true)
(define-fun Studies ((BOUND_VARIABLE_453 BoundSet) (BOUND_VARIABLE_454 BoundSet)) Bool true)
(define-fun IsRelatedTo ((BOUND_VARIABLE_453 BoundSet) (BOUND_VARIABLE_454 BoundSet)) Bool false)
)
